
  32    4
  10   10   10   10

   0   0   0   0   0  13 2 20 21 22 23 24 25 26 27 28 29 30 31 
   5  10  10  10  10   1 3 
   9  10  10  10  10   1 4 
  10  10  10  10  10   2 19 5 
   5  10  10  10  10   2 18 6 
  10  10  10  10  10   1 7 
   6  10  10  10  10   1 8 
   9  10  10  10  10   1 9 
   4  10  10  10  10   2 17 10 
   4  10  10  10  10   1 11 
   5  10  10  10  10   1 12 
   6  10  10  10  10   1 13 
   8  10  10  10  10   1 14 
   9  10  10  10  10   1 15 
   9  10  10  10  10   1 16 
   9  10  10  10  10   1 32
   9  10  10  10  10   1 32
   6  10  10  10  10   1 32
   4  10  10  10  10   1 32
   2  10  10  10  10   1 32
   5  10  10  10  10   1 32
   9  10  10  10  10   1 32
   9  10  10  10  10   1 32
  10  10  10  10  10   1 32
   9  10  10  10  10   1 32
   2  10  10  10  10   1 32
   2  10  10  10  10   1 32
   9  10  10  10  10   1 32
   2  10  10  10  10   1 32
   4  10  10  10  10   1 32
  10  10  10  10  10   1 32
   0   0   0   0   0   0 
